(set-logic QF_BV)

(declare-const __ESBMC_ptr_obj_start_0 (_ BitVec 64))

(declare-const __ESBMC_ptr_obj_end_0 (_ BitVec 64))

(declare-const __ESBMC_ptr_obj_start_1 (_ BitVec 64))

(declare-const __ESBMC_ptr_obj_end_1 (_ BitVec 64))

(declare-const |smt_conv::__ESBMC_ptr_addr_range_0..start0| (_ BitVec 64))

(declare-const |smt_conv::__ESBMC_ptr_addr_range_0..end0| (_ BitVec 64))

(declare-const |smt_conv::__ESBMC_ptr_addr_range_1..start0| (_ BitVec 64))

(declare-const |smt_conv::__ESBMC_ptr_addr_range_1..end0| (_ BitVec 64))

(declare-const |smt_conv::smt_conv::collate_array_vals::3..start0| (_ BitVec 64))

(declare-const |smt_conv::smt_conv::collate_array_vals::3..end0| (_ BitVec 64))

(declare-const |smt_conv::smt_conv::collate_array_vals::4..start0| (_ BitVec 64))

(declare-const |smt_conv::smt_conv::collate_array_vals::4..end0| (_ BitVec 64))

(declare-const |smt_conv::smt_conv::collate_array_vals::7..start0| (_ BitVec 64))

(declare-const |smt_conv::smt_conv::collate_array_vals::7..end0| (_ BitVec 64))

(declare-const |c:@F@main::$tmp::return_value$___VERIFIER_nondet_int$1?1!0&0#1| (_ BitVec 32))

(declare-const |nondet$symex::nondet44| (_ BitVec 32))

(declare-const |c:gj2007b.i@1011@F@main@n?1!0&0#1| (_ BitVec 32))

(declare-const |goto_symex::guard?0!0&0#1| (_ BitVec 1))

(declare-const |goto_symex::guard?0!0&0#3| (_ BitVec 1))

(declare-const |c:@F@main::$tmp::return_value$___VERIFIER_nondet_int$2?2!0&0#1| (_ BitVec 32))

(declare-const |nondet$symex::nondet46| (_ BitVec 32))

(declare-const |goto_symex::guard?0!0&0#4| (_ BitVec 1))

(declare-const |c:gj2007b.i@996@F@main@m?1!0&0#5| (_ BitVec 32))

(declare-const |goto_symex::guard?0!0&0#5| (_ BitVec 1))

(declare-const |c:@F@main::$tmp::return_value$___VERIFIER_nondet_int$2?3!0&0#1| (_ BitVec 32))

(declare-const |nondet$symex::nondet47| (_ BitVec 32))

(declare-const |goto_symex::guard?0!0&0#6| (_ BitVec 1))

(declare-const |c:gj2007b.i@996@F@main@m?1!0&0#7| (_ BitVec 32))

(declare-const |goto_symex::guard?0!0&0#7| (_ BitVec 1))

(declare-const |c:@F@main::$tmp::return_value$___VERIFIER_nondet_int$2?4!0&0#1| (_ BitVec 32))

(declare-const |nondet$symex::nondet48| (_ BitVec 32))

(declare-const |goto_symex::guard?0!0&0#8| (_ BitVec 1))

(declare-const |c:gj2007b.i@996@F@main@m?1!0&0#9| (_ BitVec 32))

(declare-const |goto_symex::guard?0!0&0#9| (_ BitVec 1))

(declare-const |c:@F@main::$tmp::return_value$___VERIFIER_nondet_int$2?5!0&0#1| (_ BitVec 32))

(declare-const |nondet$symex::nondet49| (_ BitVec 32))

(declare-const |goto_symex::guard?0!0&0#10| (_ BitVec 1))

(declare-const |c:gj2007b.i@996@F@main@m?1!0&0#11| (_ BitVec 32))

(declare-const |goto_symex::guard?0!0&0#11| (_ BitVec 1))

(declare-const |c:@F@main::$tmp::return_value$___VERIFIER_nondet_int$2?6!0&0#1| (_ BitVec 32))

(declare-const |nondet$symex::nondet50| (_ BitVec 32))

(declare-const |goto_symex::guard?0!0&0#12| (_ BitVec 1))

(declare-const |c:gj2007b.i@996@F@main@m?1!0&0#13| (_ BitVec 32))

(declare-const |goto_symex::guard?0!0&0#13| (_ BitVec 1))

(declare-const |c:@F@main::$tmp::return_value$___VERIFIER_nondet_int$2?7!0&0#1| (_ BitVec 32))

(declare-const |nondet$symex::nondet51| (_ BitVec 32))

(declare-const |goto_symex::guard?0!0&0#14| (_ BitVec 1))

(declare-const |c:gj2007b.i@996@F@main@m?1!0&0#15| (_ BitVec 32))

(declare-const |goto_symex::guard?0!0&0#15| (_ BitVec 1))

(declare-const |c:@F@main::$tmp::return_value$___VERIFIER_nondet_int$2?8!0&0#1| (_ BitVec 32))

(declare-const |nondet$symex::nondet52| (_ BitVec 32))

(declare-const |goto_symex::guard?0!0&0#16| (_ BitVec 1))

(declare-const |c:gj2007b.i@996@F@main@m?1!0&0#17| (_ BitVec 32))

(declare-const |goto_symex::guard?0!0&0#17| (_ BitVec 1))

(declare-const |execution_statet::guard_exec?0!0| (_ BitVec 1))

(declare-const |c:gj2007b.i@996@F@main@m?1!0&0#20| (_ BitVec 32))

(declare-const |c:gj2007b.i@996@F@main@m?1!0&0#21| (_ BitVec 32))

(declare-const |c:gj2007b.i@996@F@main@m?1!0&0#22| (_ BitVec 32))

(declare-const |c:gj2007b.i@996@F@main@m?1!0&0#23| (_ BitVec 32))

(declare-const |c:gj2007b.i@996@F@main@m?1!0&0#24| (_ BitVec 32))

(declare-const |c:gj2007b.i@996@F@main@m?1!0&0#25| (_ BitVec 32))

(declare-const |c:gj2007b.i@996@F@main@m?1!0&0#26| (_ BitVec 32))

(declare-const |c:gj2007b.i@996@F@main@m?1!0&0#27| (_ BitVec 32))

(declare-const |c:gj2007b.i@996@F@main@m?1!0&0#28| (_ BitVec 32))

(declare-const |c:gj2007b.i@852@F@__VERIFIER_assert@cond?1!0&0#1| (_ BitVec 32))

(declare-const |goto_symex::guard?0!0&0#19| (_ BitVec 1))

(declare-const |c:gj2007b.i@852@F@__VERIFIER_assert@cond?2!0&0#1| (_ BitVec 32))

(declare-const |goto_symex::guard?0!0&0#20| (_ BitVec 1))

(define-fun $e1 () Bool 

 (bvslt #b00000000000000000000000000000000 |c:gj2007b.i@1011@F@main@n?1!0&0#1|))

(assert 

 (= __ESBMC_ptr_obj_start_0 #b0000000000000000000000000000000000000000000000000000000000000000))

(assert 

 (= #b0000000000000000000000000000000000000000000000000000000000000000 __ESBMC_ptr_obj_end_0))

(assert 

 (= __ESBMC_ptr_obj_start_1 #b0000000000000000000000000000000000000000000000000000000000000001))

(assert 

 (= #b1111111111111111111111111111111111111111111111111111111111111111 __ESBMC_ptr_obj_end_1))

(assert 

 (= __ESBMC_ptr_obj_end_0 |smt_conv::__ESBMC_ptr_addr_range_0..end0|))

(assert 

 (= __ESBMC_ptr_obj_start_0 |smt_conv::__ESBMC_ptr_addr_range_0..start0|))

(assert 

 (= __ESBMC_ptr_obj_end_1 |smt_conv::__ESBMC_ptr_addr_range_1..end0|))

(assert 

 (= __ESBMC_ptr_obj_start_1 |smt_conv::__ESBMC_ptr_addr_range_1..start0|))

(assert 

 (= |smt_conv::smt_conv::collate_array_vals::3..end0| |smt_conv::smt_conv::collate_array_vals::4..end0|))

(assert 

 (= |smt_conv::smt_conv::collate_array_vals::3..start0| |smt_conv::smt_conv::collate_array_vals::4..start0|))

(assert 

 (= __ESBMC_ptr_obj_end_0 |smt_conv::smt_conv::collate_array_vals::7..end0|))

(assert 

 (= __ESBMC_ptr_obj_start_0 |smt_conv::smt_conv::collate_array_vals::7..start0|))

(assert 

 (= |c:@F@main::$tmp::return_value$___VERIFIER_nondet_int$1?1!0&0#1| |nondet$symex::nondet44|))

(assert 

 (= |c:@F@main::$tmp::return_value$___VERIFIER_nondet_int$1?1!0&0#1| |c:gj2007b.i@1011@F@main@n?1!0&0#1|))

(assert 

 (= |goto_symex::guard?0!0&0#1| 

  (ite $e1 #b1 #b0)))

(assert 

 (= |goto_symex::guard?0!0&0#3| 

  (ite 

   (bvslt #b00000000000000000000000000000001 |c:gj2007b.i@1011@F@main@n?1!0&0#1|) #b1 #b0)))

(assert 

 (= |c:@F@main::$tmp::return_value$___VERIFIER_nondet_int$2?2!0&0#1| |nondet$symex::nondet46|))

(assert 

 (= |goto_symex::guard?0!0&0#4| 

  (bvnot 

   (ite 

    (= #b00000000000000000000000000000000 |c:@F@main::$tmp::return_value$___VERIFIER_nondet_int$2?2!0&0#1|) #b1 #b0))))

(assert 

 (= |c:gj2007b.i@996@F@main@m?1!0&0#5| 

  (ite 

   (= #b1 |goto_symex::guard?0!0&0#4|) #b00000000000000000000000000000001 #b00000000000000000000000000000000)))

(assert 

 (= |goto_symex::guard?0!0&0#5| 

  (ite 

   (bvslt #b00000000000000000000000000000010 |c:gj2007b.i@1011@F@main@n?1!0&0#1|) #b1 #b0)))

(assert 

 (= |c:@F@main::$tmp::return_value$___VERIFIER_nondet_int$2?3!0&0#1| |nondet$symex::nondet47|))

(assert 

 (= |goto_symex::guard?0!0&0#6| 

  (bvnot 

   (ite 

    (= #b00000000000000000000000000000000 |c:@F@main::$tmp::return_value$___VERIFIER_nondet_int$2?3!0&0#1|) #b1 #b0))))

(assert 

 (= |c:gj2007b.i@996@F@main@m?1!0&0#7| 

  (ite 

   (= #b1 |goto_symex::guard?0!0&0#6|) #b00000000000000000000000000000010 |c:gj2007b.i@996@F@main@m?1!0&0#5|)))

(assert 

 (= |goto_symex::guard?0!0&0#7| 

  (ite 

   (bvslt #b00000000000000000000000000000011 |c:gj2007b.i@1011@F@main@n?1!0&0#1|) #b1 #b0)))

(assert 

 (= |c:@F@main::$tmp::return_value$___VERIFIER_nondet_int$2?4!0&0#1| |nondet$symex::nondet48|))

(assert 

 (= |goto_symex::guard?0!0&0#8| 

  (bvnot 

   (ite 

    (= #b00000000000000000000000000000000 |c:@F@main::$tmp::return_value$___VERIFIER_nondet_int$2?4!0&0#1|) #b1 #b0))))

(assert 

 (= |c:gj2007b.i@996@F@main@m?1!0&0#9| 

  (ite 

   (= #b1 |goto_symex::guard?0!0&0#8|) #b00000000000000000000000000000011 |c:gj2007b.i@996@F@main@m?1!0&0#7|)))

(assert 

 (= |goto_symex::guard?0!0&0#9| 

  (ite 

   (bvslt #b00000000000000000000000000000100 |c:gj2007b.i@1011@F@main@n?1!0&0#1|) #b1 #b0)))

(assert 

 (= |c:@F@main::$tmp::return_value$___VERIFIER_nondet_int$2?5!0&0#1| |nondet$symex::nondet49|))

(assert 

 (= |goto_symex::guard?0!0&0#10| 

  (bvnot 

   (ite 

    (= #b00000000000000000000000000000000 |c:@F@main::$tmp::return_value$___VERIFIER_nondet_int$2?5!0&0#1|) #b1 #b0))))

(assert 

 (= |c:gj2007b.i@996@F@main@m?1!0&0#11| 

  (ite 

   (= #b1 |goto_symex::guard?0!0&0#10|) #b00000000000000000000000000000100 |c:gj2007b.i@996@F@main@m?1!0&0#9|)))

(assert 

 (= |goto_symex::guard?0!0&0#11| 

  (ite 

   (bvslt #b00000000000000000000000000000101 |c:gj2007b.i@1011@F@main@n?1!0&0#1|) #b1 #b0)))

(assert 

 (= |c:@F@main::$tmp::return_value$___VERIFIER_nondet_int$2?6!0&0#1| |nondet$symex::nondet50|))

(assert 

 (= |goto_symex::guard?0!0&0#12| 

  (bvnot 

   (ite 

    (= #b00000000000000000000000000000000 |c:@F@main::$tmp::return_value$___VERIFIER_nondet_int$2?6!0&0#1|) #b1 #b0))))

(assert 

 (= |c:gj2007b.i@996@F@main@m?1!0&0#13| 

  (ite 

   (= #b1 |goto_symex::guard?0!0&0#12|) #b00000000000000000000000000000101 |c:gj2007b.i@996@F@main@m?1!0&0#11|)))

(assert 

 (= |goto_symex::guard?0!0&0#13| 

  (ite 

   (bvslt #b00000000000000000000000000000110 |c:gj2007b.i@1011@F@main@n?1!0&0#1|) #b1 #b0)))

(assert 

 (= |c:@F@main::$tmp::return_value$___VERIFIER_nondet_int$2?7!0&0#1| |nondet$symex::nondet51|))

(assert 

 (= |goto_symex::guard?0!0&0#14| 

  (bvnot 

   (ite 

    (= #b00000000000000000000000000000000 |c:@F@main::$tmp::return_value$___VERIFIER_nondet_int$2?7!0&0#1|) #b1 #b0))))

(assert 

 (= |c:gj2007b.i@996@F@main@m?1!0&0#15| 

  (ite 

   (= #b1 |goto_symex::guard?0!0&0#14|) #b00000000000000000000000000000110 |c:gj2007b.i@996@F@main@m?1!0&0#13|)))

(assert 

 (= |goto_symex::guard?0!0&0#15| 

  (ite 

   (bvslt #b00000000000000000000000000000111 |c:gj2007b.i@1011@F@main@n?1!0&0#1|) #b1 #b0)))

(assert 

 (= |c:@F@main::$tmp::return_value$___VERIFIER_nondet_int$2?8!0&0#1| |nondet$symex::nondet52|))

(assert 

 (= |goto_symex::guard?0!0&0#16| 

  (bvnot 

   (ite 

    (= #b00000000000000000000000000000000 |c:@F@main::$tmp::return_value$___VERIFIER_nondet_int$2?8!0&0#1|) #b1 #b0))))

(assert 

 (= |c:gj2007b.i@996@F@main@m?1!0&0#17| 

  (ite 

   (= #b1 |goto_symex::guard?0!0&0#16|) #b00000000000000000000000000000111 |c:gj2007b.i@996@F@main@m?1!0&0#15|)))

(assert 

 (= |goto_symex::guard?0!0&0#17| 

  (ite 

   (bvslt #b00000000000000000000000000001000 |c:gj2007b.i@1011@F@main@n?1!0&0#1|) #b1 #b0)))

(assert 

 (= |c:gj2007b.i@996@F@main@m?1!0&0#17| |c:gj2007b.i@996@F@main@m?1!0&0#20|))

(assert 

 (= |c:gj2007b.i@996@F@main@m?1!0&0#21| 

  (ite 

   (= #b1 |goto_symex::guard?0!0&0#15|) |c:gj2007b.i@996@F@main@m?1!0&0#20| |c:gj2007b.i@996@F@main@m?1!0&0#15|)))

(assert 

 (= |c:gj2007b.i@996@F@main@m?1!0&0#22| 

  (ite 

   (= #b1 |goto_symex::guard?0!0&0#13|) |c:gj2007b.i@996@F@main@m?1!0&0#21| |c:gj2007b.i@996@F@main@m?1!0&0#13|)))

(assert 

 (= |c:gj2007b.i@996@F@main@m?1!0&0#23| 

  (ite 

   (= #b1 |goto_symex::guard?0!0&0#11|) |c:gj2007b.i@996@F@main@m?1!0&0#22| |c:gj2007b.i@996@F@main@m?1!0&0#11|)))

(assert 

 (= |c:gj2007b.i@996@F@main@m?1!0&0#24| 

  (ite 

   (= #b1 |goto_symex::guard?0!0&0#9|) |c:gj2007b.i@996@F@main@m?1!0&0#23| |c:gj2007b.i@996@F@main@m?1!0&0#9|)))

(assert 

 (= |c:gj2007b.i@996@F@main@m?1!0&0#25| 

  (ite 

   (= #b1 |goto_symex::guard?0!0&0#7|) |c:gj2007b.i@996@F@main@m?1!0&0#24| |c:gj2007b.i@996@F@main@m?1!0&0#7|)))

(assert 

 (= |c:gj2007b.i@996@F@main@m?1!0&0#26| 

  (ite 

   (= #b1 |goto_symex::guard?0!0&0#5|) |c:gj2007b.i@996@F@main@m?1!0&0#25| |c:gj2007b.i@996@F@main@m?1!0&0#5|)))

(assert 

 (= |c:gj2007b.i@996@F@main@m?1!0&0#27| 

  (ite 

   (= #b1 |goto_symex::guard?0!0&0#3|) |c:gj2007b.i@996@F@main@m?1!0&0#26| #b00000000000000000000000000000000)))

(assert 

 (= |c:gj2007b.i@996@F@main@m?1!0&0#28| 

  (ite 

   (= #b1 |goto_symex::guard?0!0&0#1|) |c:gj2007b.i@996@F@main@m?1!0&0#27| #b00000000000000000000000000000000)))

(assert 

 (= |c:gj2007b.i@852@F@__VERIFIER_assert@cond?1!0&0#1| 

  (ite 

   (and 

    (bvslt |c:gj2007b.i@996@F@main@m?1!0&0#28| #b00000000000000000000000000000000) $e1) #b00000000000000000000000000000000 #b00000000000000000000000000000001)))

(assert 

 (= |goto_symex::guard?0!0&0#19| 

  (ite 

   (= #b00000000000000000000000000000000 |c:gj2007b.i@852@F@__VERIFIER_assert@cond?1!0&0#1|) #b1 #b0)))

(assert 

 (= |c:gj2007b.i@852@F@__VERIFIER_assert@cond?2!0&0#1| 

  (ite 

   (and 

    (not 

     (bvslt |c:gj2007b.i@996@F@main@m?1!0&0#28| |c:gj2007b.i@1011@F@main@n?1!0&0#1|)) $e1) #b00000000000000000000000000000000 #b00000000000000000000000000000001)))

(assert 

 (= |goto_symex::guard?0!0&0#20| 

  (ite 

   (= #b00000000000000000000000000000000 |c:gj2007b.i@852@F@__VERIFIER_assert@cond?2!0&0#1|) #b1 #b0)))

(assert (= |execution_statet::guard_exec?0!0| #b1))

(assert (= |goto_symex::guard?0!0&0#17| #b1))

(assert (= |goto_symex::guard?0!0&0#15| #b1))

(assert (= |goto_symex::guard?0!0&0#13| #b1))

(assert (= |goto_symex::guard?0!0&0#11| #b1))

(assert (= |goto_symex::guard?0!0&0#9| #b1))

(assert (= |goto_symex::guard?0!0&0#7| #b1))

(assert (= |goto_symex::guard?0!0&0#5| #b1))

(assert (= |goto_symex::guard?0!0&0#3| #b1))

(assert (= |goto_symex::guard?0!0&0#1| #b1))

(check-sat)

(exit)
